c status 8 1469274441184
c status 5 1469274441184
s td 19 5 24
b 1 1 2 24 23
b 2 6 5 7 12
b 3 22 10 21 23
b 4 8 9 14 21
b 5 9 10 14 21
b 6 20 19 7 21
b 7 19 7 21 18
b 8 3 11 24 4
b 9 17 16 14 15
b 10 16 14 12 15
b 11 10 14 21 23
b 12 11 24 4 15
b 13 13 2 4 18
b 14 5 7 12 18
b 15 7 21 12 18
b 16 14 21 12 15 23
b 17 2 24 4 18 23
b 18 24 4 15 18 23
b 19 21 12 15 18 23
1 17
17 18
18 19
19 16
18 12
17 13
19 15
15 14
14 2
16 11
16 10
11 3
11 5
10 9
5 4
12 8
15 7
7 6
